
  24    0


   0  13 2 3 4 5 6 9 10 18 19 20 21 22 23 
   5   5 15 14 13 12 8 
  10   4 14 12 11 7 
   4   3 17 13 11 
   7   3 14 12 11 
   6   2 16 12 
   4   1 13 
   8   1 11 
   8   1 15 
   2   1 11 
   4   1 24
   4   1 24
   3   1 24
   4   1 24
   7   1 24
   8   1 24
   6   1 24
   3   1 24
   2   1 24
   2   1 24
   7   1 24
   7   1 24
   2   1 24
   0   0 
